units 	 real 	 # angstroms,kCal/mol,Daltons,Kelvin
atom_style 	 full 	 # select column format for Atoms section
pair_style 	 table linear 1000
bond_style 	 hybrid harmonic table linear 1000
angle_style 	 hybrid harmonic table linear 1000
dihedral_style 	 opls
boundary 	 p p p
